NAME 
OBJSENSE MAX
ROWS
 N  OBJ
 L  packing[0]
 L  packing[1]
 L  packing[2]
 L  packing[3]
 L  packing[4]
 L  packing[5]
 L  packing[6]
 L  packing[7]
 L  packing[8]
 L  packing[9]
 L  packing[10]
 L  packing[11]
 L  packing[12]
 L  packing[13]
 L  packing[14]
 L  packing[15]
 L  packing[16]
 L  packing[17]
 L  packing[18]
 L  packing[19]
 L  packing[20]
 L  packing[21]
 L  packing[22]
 L  packing[23]
 L  packing[24]
 L  packing[25]
 L  packing[26]
 L  packing[27]
 L  packing[28]
 L  packing[29]
 L  packing[30]
 L  packing[31]
 L  packing[32]
 L  packing[33]
 L  packing[34]
 L  packing[35]
 L  packing[36]
 L  packing[37]
 L  packing[38]
 L  packing[39]
 L  packing[40]
 L  packing[41]
 L  packing[42]
 L  packing[43]
 L  packing[44]
 L  packing[45]
 L  packing[46]
 L  packing[47]
 L  packing[48]
 L  packing[49]
 L  R55     
COLUMNS
    MARKER    'MARKER'                 'INTORG'
    x[1]      OBJ       169
    x[1]      packing[0]  174
    x[1]      packing[1]  114
    x[1]      packing[5]  95
    x[1]      packing[6]  13
    x[1]      packing[7]  61
    x[1]      packing[8]  13
    x[1]      packing[9]  108
    x[1]      packing[10]  197
    x[1]      packing[11]  61
    x[1]      packing[12]  181
    x[1]      packing[14]  171
    x[1]      packing[18]  140
    x[1]      packing[20]  194
    x[1]      packing[21]  1
    x[1]      packing[22]  188
    x[1]      packing[23]  89
    x[1]      packing[24]  197
    x[1]      packing[26]  125
    x[1]      packing[27]  140
    x[1]      packing[28]  55
    x[1]      packing[29]  44
    x[1]      packing[30]  85
    x[1]      packing[31]  122
    x[1]      packing[33]  181
    x[1]      packing[34]  95
    x[1]      packing[35]  87
    x[1]      packing[36]  29
    x[1]      packing[37]  62
    x[1]      packing[39]  130
    x[1]      packing[40]  106
    x[1]      packing[41]  24
    x[1]      packing[42]  103
    x[1]      packing[43]  61
    x[1]      packing[44]  134
    x[1]      packing[45]  72
    x[1]      packing[49]  142
    x[1]      R55       1
    x[2]      OBJ       56
    x[2]      packing[0]  91
    x[2]      packing[1]  27
    x[2]      packing[2]  146
    x[2]      packing[3]  31
    x[2]      packing[4]  87
    x[2]      packing[5]  3
    x[2]      packing[6]  81
    x[2]      packing[7]  114
    x[2]      packing[8]  133
    x[2]      packing[9]  190
    x[2]      packing[11]  23
    x[2]      packing[12]  72
    x[2]      packing[13]  39
    x[2]      packing[14]  70
    x[2]      packing[15]  179
    x[2]      packing[16]  170
    x[2]      packing[17]  191
    x[2]      packing[19]  143
    x[2]      packing[20]  177
    x[2]      packing[21]  35
    x[2]      packing[22]  68
    x[2]      packing[23]  163
    x[2]      packing[24]  59
    x[2]      packing[25]  58
    x[2]      packing[26]  116
    x[2]      packing[27]  81
    x[2]      packing[28]  42
    x[2]      packing[29]  108
    x[2]      packing[32]  116
    x[2]      packing[36]  115
    x[2]      packing[37]  152
    x[2]      packing[38]  33
    x[2]      packing[39]  142
    x[2]      packing[41]  176
    x[2]      packing[42]  120
    x[2]      packing[44]  184
    x[2]      packing[46]  57
    x[2]      packing[47]  8
    x[2]      packing[48]  74
    x[2]      packing[49]  183
    x[3]      OBJ       91
    x[3]      packing[0]  50
    x[3]      packing[1]  165
    x[3]      packing[2]  159
    x[3]      packing[4]  112
    x[3]      packing[5]  58
    x[3]      packing[6]  104
    x[3]      packing[7]  180
    x[3]      packing[9]  146
    x[3]      packing[10]  133
    x[3]      packing[11]  193
    x[3]      packing[12]  171
    x[3]      packing[14]  87
    x[3]      packing[15]  127
    x[3]      packing[17]  41
    x[3]      packing[18]  2
    x[3]      packing[19]  36
    x[3]      packing[20]  113
    x[3]      packing[21]  52
    x[3]      packing[23]  24
    x[3]      packing[24]  81
    x[3]      packing[25]  17
    x[3]      packing[26]  68
    x[3]      packing[27]  108
    x[3]      packing[28]  62
    x[3]      packing[29]  84
    x[3]      packing[30]  100
    x[3]      packing[31]  66
    x[3]      packing[32]  88
    x[3]      packing[33]  195
    x[3]      packing[34]  96
    x[3]      packing[35]  71
    x[3]      packing[37]  88
    x[3]      packing[38]  108
    x[3]      packing[41]  82
    x[3]      packing[42]  111
    x[3]      packing[43]  118
    x[3]      packing[44]  198
    x[3]      packing[46]  172
    x[3]      packing[47]  185
    x[3]      packing[48]  184
    x[3]      packing[49]  143
    x[4]      OBJ       82
    x[4]      packing[0]  122
    x[4]      packing[1]  128
    x[4]      packing[2]  60
    x[4]      packing[3]  168
    x[4]      packing[4]  152
    x[4]      packing[5]  4
    x[4]      packing[6]  125
    x[4]      packing[7]  56
    x[4]      packing[8]  34
    x[4]      packing[10]  66
    x[4]      packing[11]  174
    x[4]      packing[12]  171
    x[4]      packing[13]  102
    x[4]      packing[14]  168
    x[4]      packing[15]  98
    x[4]      packing[16]  138
    x[4]      packing[17]  74
    x[4]      packing[18]  109
    x[4]      packing[19]  54
    x[4]      packing[20]  80
    x[4]      packing[22]  21
    x[4]      packing[23]  152
    x[4]      packing[27]  129
    x[4]      packing[28]  27
    x[4]      packing[29]  182
    x[4]      packing[30]  34
    x[4]      packing[31]  44
    x[4]      packing[32]  36
    x[4]      packing[33]  106
    x[4]      packing[34]  72
    x[4]      packing[35]  144
    x[4]      packing[36]  160
    x[4]      packing[37]  191
    x[4]      packing[38]  133
    x[4]      packing[40]  137
    x[4]      packing[41]  45
    x[4]      packing[42]  180
    x[4]      packing[45]  149
    x[4]      packing[46]  100
    x[4]      packing[47]  9
    x[4]      packing[49]  71
    x[5]      OBJ       128
    x[5]      packing[0]  117
    x[5]      packing[1]  148
    x[5]      packing[2]  96
    x[5]      packing[5]  158
    x[5]      packing[6]  23
    x[5]      packing[7]  139
    x[5]      packing[9]  131
    x[5]      packing[10]  126
    x[5]      packing[11]  120
    x[5]      packing[12]  134
    x[5]      packing[13]  70
    x[5]      packing[14]  118
    x[5]      packing[15]  26
    x[5]      packing[16]  13
    x[5]      packing[17]  172
    x[5]      packing[19]  47
    x[5]      packing[20]  141
    x[5]      packing[23]  148
    x[5]      packing[26]  159
    x[5]      packing[27]  79
    x[5]      packing[28]  100
    x[5]      packing[29]  106
    x[5]      packing[31]  171
    x[5]      packing[33]  198
    x[5]      packing[34]  188
    x[5]      packing[35]  29
    x[5]      packing[36]  68
    x[5]      packing[37]  98
    x[5]      packing[38]  17
    x[5]      packing[39]  168
    x[5]      packing[40]  81
    x[5]      packing[41]  135
    x[5]      packing[43]  177
    x[5]      packing[44]  183
    x[5]      packing[47]  161
    x[5]      packing[48]  67
    x[5]      packing[49]  167
    x[5]      R55       1
    x[6]      OBJ       153
    x[6]      packing[0]  132
    x[6]      packing[1]  77
    x[6]      packing[2]  195
    x[6]      packing[3]  195
    x[6]      packing[4]  82
    x[6]      packing[5]  125
    x[6]      packing[6]  1
    x[6]      packing[7]  5
    x[6]      packing[8]  47
    x[6]      packing[9]  24
    x[6]      packing[10]  51
    x[6]      packing[11]  145
    x[6]      packing[14]  196
    x[6]      packing[16]  66
    x[6]      packing[18]  192
    x[6]      packing[19]  36
    x[6]      packing[20]  111
    x[6]      packing[21]  138
    x[6]      packing[22]  155
    x[6]      packing[26]  58
    x[6]      packing[27]  91
    x[6]      packing[28]  74
    x[6]      packing[30]  97
    x[6]      packing[31]  150
    x[6]      packing[32]  94
    x[6]      packing[33]  198
    x[6]      packing[36]  143
    x[6]      packing[37]  115
    x[6]      packing[39]  182
    x[6]      packing[41]  137
    x[6]      packing[42]  148
    x[6]      packing[43]  139
    x[6]      packing[44]  169
    x[6]      packing[45]  137
    x[6]      packing[46]  8
    x[6]      packing[47]  2
    x[6]      packing[48]  24
    x[6]      packing[49]  74
    x[7]      OBJ       21
    x[7]      packing[0]  10
    x[7]      packing[1]  185
    x[7]      packing[3]  120
    x[7]      packing[4]  117
    x[7]      packing[5]  174
    x[7]      packing[6]  70
    x[7]      packing[8]  157
    x[7]      packing[9]  58
    x[7]      packing[10]  191
    x[7]      packing[11]  142
    x[7]      packing[12]  85
    x[7]      packing[13]  164
    x[7]      packing[14]  4
    x[7]      packing[16]  141
    x[7]      packing[18]  127
    x[7]      packing[19]  1
    x[7]      packing[20]  112
    x[7]      packing[21]  151
    x[7]      packing[22]  1
    x[7]      packing[23]  59
    x[7]      packing[24]  138
    x[7]      packing[26]  90
    x[7]      packing[27]  186
    x[7]      packing[28]  150
    x[7]      packing[29]  150
    x[7]      packing[30]  143
    x[7]      packing[31]  6
    x[7]      packing[32]  104
    x[7]      packing[33]  48
    x[7]      packing[36]  178
    x[7]      packing[37]  49
    x[7]      packing[38]  29
    x[7]      packing[39]  89
    x[7]      packing[40]  8
    x[7]      packing[41]  126
    x[7]      packing[44]  178
    x[7]      packing[45]  181
    x[7]      packing[46]  40
    x[7]      packing[47]  24
    x[7]      packing[48]  99
    x[8]      OBJ       153
    x[8]      packing[2]  138
    x[8]      packing[3]  157
    x[8]      packing[5]  199
    x[8]      packing[7]  5
    x[8]      packing[8]  104
    x[8]      packing[10]  191
    x[8]      packing[11]  35
    x[8]      packing[12]  142
    x[8]      packing[13]  116
    x[8]      packing[14]  51
    x[8]      packing[15]  56
    x[8]      packing[16]  159
    x[8]      packing[17]  159
    x[8]      packing[19]  152
    x[8]      packing[21]  49
    x[8]      packing[22]  132
    x[8]      packing[23]  78
    x[8]      packing[24]  101
    x[8]      packing[26]  151
    x[8]      packing[27]  40
    x[8]      packing[28]  55
    x[8]      packing[29]  145
    x[8]      packing[31]  74
    x[8]      packing[32]  2
    x[8]      packing[33]  31
    x[8]      packing[35]  128
    x[8]      packing[36]  89
    x[8]      packing[38]  11
    x[8]      packing[39]  188
    x[8]      packing[41]  16
    x[8]      packing[42]  164
    x[8]      packing[43]  92
    x[8]      packing[44]  8
    x[8]      packing[45]  198
    x[8]      packing[46]  145
    x[8]      packing[47]  8
    x[8]      packing[48]  177
    x[8]      packing[49]  112
    x[9]      OBJ       18
    x[9]      packing[0]  79
    x[9]      packing[3]  62
    x[9]      packing[4]  65
    x[9]      packing[5]  92
    x[9]      packing[6]  81
    x[9]      packing[8]  165
    x[9]      packing[10]  63
    x[9]      packing[12]  158
    x[9]      packing[13]  22
    x[9]      packing[14]  139
    x[9]      packing[15]  162
    x[9]      packing[16]  10
    x[9]      packing[17]  159
    x[9]      packing[19]  66
    x[9]      packing[20]  135
    x[9]      packing[21]  83
    x[9]      packing[22]  34
    x[9]      packing[23]  28
    x[9]      packing[24]  63
    x[9]      packing[26]  191
    x[9]      packing[28]  119
    x[9]      packing[30]  109
    x[9]      packing[31]  2
    x[9]      packing[33]  166
    x[9]      packing[34]  54
    x[9]      packing[35]  17
    x[9]      packing[36]  16
    x[9]      packing[40]  176
    x[9]      packing[41]  38
    x[9]      packing[42]  63
    x[9]      packing[43]  164
    x[9]      packing[44]  93
    x[9]      packing[45]  20
    x[9]      packing[46]  23
    x[9]      packing[47]  196
    x[9]      packing[49]  114
    x[10]     OBJ       49
    x[10]     packing[1]  193
    x[10]     packing[4]  170
    x[10]     packing[5]  175
    x[10]     packing[6]  8
    x[10]     packing[8]  135
    x[10]     packing[10]  113
    x[10]     packing[11]  30
    x[10]     packing[12]  80
    x[10]     packing[13]  100
    x[10]     packing[15]  22
    x[10]     packing[19]  145
    x[10]     packing[20]  18
    x[10]     packing[21]  146
    x[10]     packing[22]  18
    x[10]     packing[23]  108
    x[10]     packing[24]  194
    x[10]     packing[25]  11
    x[10]     packing[27]  137
    x[10]     packing[28]  159
    x[10]     packing[29]  31
    x[10]     packing[30]  99
    x[10]     packing[31]  163
    x[10]     packing[33]  127
    x[10]     packing[35]  98
    x[10]     packing[36]  16
    x[10]     packing[38]  63
    x[10]     packing[39]  66
    x[10]     packing[40]  166
    x[10]     packing[41]  151
    x[10]     packing[42]  127
    x[10]     packing[45]  94
    x[10]     packing[46]  180
    x[10]     packing[47]  133
    x[10]     packing[48]  58
    x[11]     OBJ       160
    x[11]     packing[0]  93
    x[11]     packing[1]  52
    x[11]     packing[4]  159
    x[11]     packing[5]  45
    x[11]     packing[6]  186
    x[11]     packing[7]  77
    x[11]     packing[8]  187
    x[11]     packing[9]  43
    x[11]     packing[10]  61
    x[11]     packing[12]  92
    x[11]     packing[13]  97
    x[11]     packing[14]  194
    x[11]     packing[15]  46
    x[11]     packing[17]  138
    x[11]     packing[18]  188
    x[11]     packing[19]  136
    x[11]     packing[20]  184
    x[11]     packing[21]  166
    x[11]     packing[26]  98
    x[11]     packing[27]  134
    x[11]     packing[28]  189
    x[11]     packing[30]  128
    x[11]     packing[31]  19
    x[11]     packing[32]  121
    x[11]     packing[34]  194
    x[11]     packing[35]  29
    x[11]     packing[36]  40
    x[11]     packing[37]  104
    x[11]     packing[38]  149
    x[11]     packing[39]  158
    x[11]     packing[40]  84
    x[11]     packing[42]  99
    x[11]     packing[43]  144
    x[11]     packing[45]  160
    x[11]     packing[46]  67
    x[11]     packing[49]  2
    x[11]     R55       1
    x[12]     OBJ       67
    x[12]     packing[1]  105
    x[12]     packing[2]  23
    x[12]     packing[3]  66
    x[12]     packing[4]  188
    x[12]     packing[5]  79
    x[12]     packing[6]  154
    x[12]     packing[7]  195
    x[12]     packing[8]  96
    x[12]     packing[10]  84
    x[12]     packing[11]  46
    x[12]     packing[13]  67
    x[12]     packing[15]  176
    x[12]     packing[16]  64
    x[12]     packing[17]  35
    x[12]     packing[18]  23
    x[12]     packing[19]  101
    x[12]     packing[20]  31
    x[12]     packing[21]  177
    x[12]     packing[22]  51
    x[12]     packing[23]  148
    x[12]     packing[24]  59
    x[12]     packing[25]  78
    x[12]     packing[27]  17
    x[12]     packing[28]  60
    x[12]     packing[29]  133
    x[12]     packing[30]  125
    x[12]     packing[31]  121
    x[12]     packing[32]  83
    x[12]     packing[33]  187
    x[12]     packing[34]  58
    x[12]     packing[35]  20
    x[12]     packing[36]  56
    x[12]     packing[38]  150
    x[12]     packing[39]  110
    x[12]     packing[41]  13
    x[12]     packing[42]  60
    x[12]     packing[43]  47
    x[12]     packing[44]  41
    x[12]     packing[45]  76
    x[12]     packing[46]  199
    x[12]     packing[47]  142
    x[12]     packing[48]  44
    x[12]     packing[49]  68
    x[13]     OBJ       155
    x[13]     packing[0]  55
    x[13]     packing[1]  24
    x[13]     packing[2]  140
    x[13]     packing[5]  44
    x[13]     packing[6]  116
    x[13]     packing[7]  96
    x[13]     packing[8]  43
    x[13]     packing[10]  186
    x[13]     packing[11]  186
    x[13]     packing[14]  113
    x[13]     packing[15]  94
    x[13]     packing[18]  76
    x[13]     packing[19]  15
    x[13]     packing[20]  14
    x[13]     packing[21]  17
    x[13]     packing[22]  62
    x[13]     packing[23]  120
    x[13]     packing[28]  42
    x[13]     packing[29]  80
    x[13]     packing[31]  94
    x[13]     packing[32]  103
    x[13]     packing[33]  42
    x[13]     packing[35]  76
    x[13]     packing[36]  193
    x[13]     packing[38]  45
    x[13]     packing[41]  136
    x[13]     packing[42]  74
    x[13]     packing[46]  175
    x[13]     packing[47]  30
    x[13]     packing[48]  14
    x[13]     packing[49]  173
    x[14]     OBJ       114
    x[14]     packing[0]  115
    x[14]     packing[1]  26
    x[14]     packing[2]  35
    x[14]     packing[3]  173
    x[14]     packing[4]  115
    x[14]     packing[6]  84
    x[14]     packing[8]  197
    x[14]     packing[9]  29
    x[14]     packing[10]  153
    x[14]     packing[12]  14
    x[14]     packing[13]  67
    x[14]     packing[14]  122
    x[14]     packing[15]  126
    x[14]     packing[16]  183
    x[14]     packing[17]  22
    x[14]     packing[18]  66
    x[14]     packing[19]  47
    x[14]     packing[21]  45
    x[14]     packing[22]  51
    x[14]     packing[23]  195
    x[14]     packing[24]  121
    x[14]     packing[26]  83
    x[14]     packing[27]  27
    x[14]     packing[28]  193
    x[14]     packing[30]  41
    x[14]     packing[32]  118
    x[14]     packing[33]  90
    x[14]     packing[35]  10
    x[14]     packing[37]  147
    x[14]     packing[38]  185
    x[14]     packing[39]  14
    x[14]     packing[42]  81
    x[14]     packing[43]  91
    x[14]     packing[44]  151
    x[14]     packing[45]  135
    x[14]     packing[48]  66
    x[15]     OBJ       166
    x[15]     packing[0]  105
    x[15]     packing[2]  130
    x[15]     packing[4]  128
    x[15]     packing[6]  198
    x[15]     packing[7]  9
    x[15]     packing[8]  162
    x[15]     packing[10]  192
    x[15]     packing[11]  184
    x[15]     packing[12]  125
    x[15]     packing[13]  24
    x[15]     packing[14]  99
    x[15]     packing[16]  136
    x[15]     packing[17]  101
    x[15]     packing[19]  69
    x[15]     packing[20]  191
    x[15]     packing[21]  137
    x[15]     packing[23]  110
    x[15]     packing[24]  128
    x[15]     packing[25]  68
    x[15]     packing[26]  143
    x[15]     packing[27]  38
    x[15]     packing[28]  17
    x[15]     packing[29]  104
    x[15]     packing[30]  95
    x[15]     packing[31]  135
    x[15]     packing[32]  184
    x[15]     packing[33]  157
    x[15]     packing[36]  194
    x[15]     packing[37]  188
    x[15]     packing[39]  124
    x[15]     packing[41]  111
    x[15]     packing[42]  139
    x[15]     packing[44]  154
    x[15]     packing[45]  175
    x[15]     packing[46]  27
    x[15]     packing[47]  177
    x[15]     packing[49]  78
    x[16]     OBJ       83
    x[16]     packing[0]  63
    x[16]     packing[1]  195
    x[16]     packing[3]  121
    x[16]     packing[4]  167
    x[16]     packing[5]  139
    x[16]     packing[6]  6
    x[16]     packing[7]  145
    x[16]     packing[8]  39
    x[16]     packing[10]  136
    x[16]     packing[11]  67
    x[16]     packing[12]  179
    x[16]     packing[14]  184
    x[16]     packing[15]  163
    x[16]     packing[17]  31
    x[16]     packing[18]  104
    x[16]     packing[19]  78
    x[16]     packing[20]  9
    x[16]     packing[22]  152
    x[16]     packing[24]  114
    x[16]     packing[25]  13
    x[16]     packing[26]  147
    x[16]     packing[27]  168
    x[16]     packing[29]  100
    x[16]     packing[31]  110
    x[16]     packing[32]  133
    x[16]     packing[34]  150
    x[16]     packing[35]  123
    x[16]     packing[36]  38
    x[16]     packing[37]  1
    x[16]     packing[38]  144
    x[16]     packing[39]  117
    x[16]     packing[40]  184
    x[16]     packing[41]  38
    x[16]     packing[42]  33
    x[16]     packing[43]  40
    x[16]     packing[46]  12
    x[16]     packing[48]  52
    x[16]     packing[49]  30
    x[17]     OBJ       177
    x[17]     packing[0]  55
    x[17]     packing[1]  27
    x[17]     packing[2]  5
    x[17]     packing[3]  44
    x[17]     packing[4]  19
    x[17]     packing[5]  93
    x[17]     packing[6]  127
    x[17]     packing[7]  48
    x[17]     packing[8]  126
    x[17]     packing[9]  191
    x[17]     packing[11]  46
    x[17]     packing[12]  164
    x[17]     packing[13]  115
    x[17]     packing[14]  170
    x[17]     packing[15]  125
    x[17]     packing[16]  167
    x[17]     packing[17]  136
    x[17]     packing[18]  121
    x[17]     packing[19]  86
    x[17]     packing[21]  117
    x[17]     packing[22]  153
    x[17]     packing[24]  2
    x[17]     packing[26]  12
    x[17]     packing[27]  11
    x[17]     packing[28]  85
    x[17]     packing[29]  149
    x[17]     packing[30]  61
    x[17]     packing[31]  129
    x[17]     packing[32]  40
    x[17]     packing[33]  106
    x[17]     packing[34]  80
    x[17]     packing[35]  79
    x[17]     packing[36]  184
    x[17]     packing[37]  23
    x[17]     packing[39]  36
    x[17]     packing[40]  116
    x[17]     packing[41]  10
    x[17]     packing[42]  162
    x[17]     packing[45]  162
    x[17]     packing[46]  76
    x[17]     packing[48]  72
    x[17]     R55       1
    x[18]     OBJ       78
    x[18]     packing[0]  185
    x[18]     packing[1]  19
    x[18]     packing[2]  140
    x[18]     packing[3]  152
    x[18]     packing[5]  86
    x[18]     packing[7]  77
    x[18]     packing[9]  146
    x[18]     packing[10]  84
    x[18]     packing[12]  31
    x[18]     packing[13]  48
    x[18]     packing[14]  49
    x[18]     packing[16]  54
    x[18]     packing[19]  188
    x[18]     packing[21]  117
    x[18]     packing[24]  160
    x[18]     packing[26]  32
    x[18]     packing[27]  142
    x[18]     packing[28]  77
    x[18]     packing[29]  196
    x[18]     packing[30]  63
    x[18]     packing[32]  36
    x[18]     packing[33]  187
    x[18]     packing[35]  137
    x[18]     packing[36]  118
    x[18]     packing[37]  1
    x[18]     packing[39]  94
    x[18]     packing[41]  78
    x[18]     packing[42]  12
    x[18]     packing[44]  188
    x[18]     packing[45]  195
    x[18]     packing[46]  61
    x[18]     packing[47]  113
    x[18]     packing[48]  30
    x[18]     packing[49]  33
    x[19]     OBJ       19
    x[19]     packing[0]  33
    x[19]     packing[1]  199
    x[19]     packing[2]  172
    x[19]     packing[3]  44
    x[19]     packing[4]  132
    x[19]     packing[5]  66
    x[19]     packing[7]  182
    x[19]     packing[8]  107
    x[19]     packing[11]  65
    x[19]     packing[12]  78
    x[19]     packing[13]  90
    x[19]     packing[15]  142
    x[19]     packing[16]  92
    x[19]     packing[17]  34
    x[19]     packing[20]  142
    x[19]     packing[21]  80
    x[19]     packing[24]  122
    x[19]     packing[26]  106
    x[19]     packing[27]  3
    x[19]     packing[30]  188
    x[19]     packing[32]  82
    x[19]     packing[35]  46
    x[19]     packing[36]  99
    x[19]     packing[37]  27
    x[19]     packing[39]  90
    x[19]     packing[40]  69
    x[19]     packing[41]  149
    x[19]     packing[43]  157
    x[19]     packing[44]  116
    x[19]     packing[45]  126
    x[19]     packing[46]  30
    x[19]     packing[48]  174
    x[20]     OBJ       101
    x[20]     packing[0]  130
    x[20]     packing[1]  10
    x[20]     packing[2]  42
    x[20]     packing[3]  43
    x[20]     packing[5]  37
    x[20]     packing[6]  148
    x[20]     packing[7]  122
    x[20]     packing[8]  117
    x[20]     packing[9]  2
    x[20]     packing[13]  83
    x[20]     packing[14]  33
    x[20]     packing[16]  171
    x[20]     packing[17]  53
    x[20]     packing[19]  81
    x[20]     packing[21]  188
    x[20]     packing[22]  66
    x[20]     packing[23]  145
    x[20]     packing[24]  89
    x[20]     packing[26]  117
    x[20]     packing[27]  37
    x[20]     packing[29]  112
    x[20]     packing[30]  74
    x[20]     packing[31]  70
    x[20]     packing[32]  180
    x[20]     packing[33]  146
    x[20]     packing[35]  134
    x[20]     packing[36]  143
    x[20]     packing[37]  139
    x[20]     packing[39]  180
    x[20]     packing[41]  177
    x[20]     packing[43]  162
    x[20]     packing[44]  20
    x[20]     packing[45]  158
    x[20]     packing[46]  117
    x[20]     packing[48]  93
    x[20]     packing[49]  78
    MARKER    'MARKER'                 'INTEND'
RHS
    RHS1      packing[0]  805
    RHS1      packing[1]  847
    RHS1      packing[2]  741
    RHS1      packing[3]  688
    RHS1      packing[4]  847
    RHS1      packing[5]  836
    RHS1      packing[6]  763
    RHS1      packing[7]  756
    RHS1      packing[8]  931
    RHS1      packing[9]  534
    RHS1      packing[10]  1014
    RHS1      packing[11]  759
    RHS1      packing[12]  939
    RHS1      packing[13]  602
    RHS1      packing[14]  984
    RHS1      packing[15]  771
    RHS1      packing[16]  782
    RHS1      packing[17]  673
    RHS1      packing[18]  574
    RHS1      packing[19]  741
    RHS1      packing[20]  826
    RHS1      packing[21]  850
    RHS1      packing[22]  576
    RHS1      packing[23]  784
    RHS1      packing[24]  814
    RHS1      packing[25]  123
    RHS1      packing[26]  848
    RHS1      packing[27]  784
    RHS1      packing[28]  753
    RHS1      packing[29]  862
    RHS1      packing[30]  721
    RHS1      packing[31]  738
    RHS1      packing[32]  760
    RHS1      packing[33]  1083
    RHS1      packing[34]  494
    RHS1      packing[35]  614
    RHS1      packing[36]  940
    RHS1      packing[37]  693
    RHS1      packing[38]  534
    RHS1      packing[39]  944
    RHS1      packing[40]  564
    RHS1      packing[41]  821
    RHS1      packing[42]  838
    RHS1      packing[43]  696
    RHS1      packing[44]  909
    RHS1      packing[45]  1019
    RHS1      packing[46]  745
    RHS1      packing[47]  594
    RHS1      packing[48]  614
    RHS1      packing[49]  734
    RHS1      R55       3
BOUNDS
 BV BND1      x[1]    
 BV BND1      x[2]    
 BV BND1      x[3]    
 BV BND1      x[4]    
 BV BND1      x[5]    
 BV BND1      x[6]    
 BV BND1      x[7]    
 BV BND1      x[8]    
 BV BND1      x[9]    
 BV BND1      x[10]   
 BV BND1      x[11]   
 BV BND1      x[12]   
 BV BND1      x[13]   
 BV BND1      x[14]   
 BV BND1      x[15]   
 BV BND1      x[16]   
 BV BND1      x[17]   
 BV BND1      x[18]   
 BV BND1      x[19]   
 BV BND1      x[20]   
ENDATA
